Data path: /scratch/opt/lxu/CFLG/benchmarks/random_B
Instance: r_30_0.1_54.txt
Result path: /scratch/opt/lxu/CFLG/results/random_B
Solver: Gurobi
Time limit: 7200
Formulation: LEFPAI
Cover: Large
julia --project=. src/main.jl /scratch/opt/lxu/CFLG/benchmarks/random_B r_30_0.1_54.txt /scratch/opt/lxu/CFLG/results/random_B Gurobi 7200 LEFPAI Large
The latest version of Julia in the `release` channel is 1.11.5+0.x64.linux.gnu. You currently have `1.11.4+0.x64.linux.gnu` installed. Run:

  juliaup update

in your terminal shell to install Julia 1.11.5+0.x64.linux.gnu and update the `release` channel to that version.
/scratch/opt/lxu/CFLG/benchmarks/random_B Gurobi 7200.0 /scratch/opt/lxu/CFLG/results/random_B r_30_0.1_54.txt LEFPAI Large
/scratch/opt/lxu/CFLG/benchmarks/random_B/r_30_0.1_54.txt

 read graph
data loaded

problem_graph/original graph: node: 30/30 edge: 54/54 dlt: 1.1988431583223897 break_avg_len: 0.5994215791611949 break_max_len: 0.9919704436735612Vbar/V, Ebar/E(27, 30, 51, 54)
Set parameter TokenServer to value "solice01.zib.de"
Set parameter Threads to value 1
Set parameter OutputFlag to value 1
Gurobi Optimizer version 12.0.1 build v12.0.1rc0 (linux64 - "Debian GNU/Linux 12 (bookworm)")

CPU model: Intel(R) Xeon(R) Gold 5122 CPU @ 3.60GHz, instruction set [SSE2|AVX|AVX2|AVX512]
Thread count: 8 physical cores, 16 logical processors, using up to 1 threads

Non-default parameters:
Threads  1

Optimize a model with 84 rows, 162 columns and 270 nonzeros
Model fingerprint: 0x9e0fb057
Coefficient statistics:
  Matrix range     [1e+00, 1e+00]
  Objective range  [1e+00, 1e+00]
  Bounds range     [1e+00, 1e+00]
  RHS range        [1e+00, 1e+00]
Presolve removed 84 rows and 162 columns
Presolve time: 0.00s
Presolve: All rows and columns removed
Iteration    Objective       Primal Inf.    Dual Inf.      Time
       0    3.0000000e+00   0.000000e+00   0.000000e+00      0s

Solved in 0 iterations and 0.00 seconds (0.00 work units)
Optimal objective  3.000000000e+00

User-callback calls 35, time in user-callback 0.00 sec
elapsed CPU time: 1.210662 seconds
Set parameter TokenServer to value "solice01.zib.de"
Set parameter Threads to value 1
Set parameter OutputFlag to value 1
Set parameter MIPGap to value 0.0001
Set parameter MIPGapAbs to value 0.999998
Set parameter TimeLimit to value 7198.789338

 more cuts: false 1.1988431583223897 false
is_attach:trueformulation:LEFPAI0 54 0

 model loaded

Gurobi Optimizer version 12.0.1 build v12.0.1rc0 (linux64 - "Debian GNU/Linux 12 (bookworm)")

CPU model: Intel(R) Xeon(R) Gold 5122 CPU @ 3.60GHz, instruction set [SSE2|AVX|AVX2|AVX512]
Thread count: 8 physical cores, 16 logical processors, using up to 1 threads

Non-default parameters:
TimeLimit  7198.789338
MIPGapAbs  0.999998
Threads  1

Optimize a model with 1589 rows, 1438 columns and 4530 nonzeros
Model fingerprint: 0x4ca02084
Model has 1162 simple general constraints
  1162 INDICATOR
Variable types: 138 continuous, 1300 integer (1300 binary)
Coefficient statistics:
  Matrix range     [3e-01, 1e+00]
  Objective range  [1e+00, 1e+00]
  Bounds range     [3e-01, 1e+00]
  RHS range        [1e-06, 1e+00]
  GenCon rhs range [9e-04, 1e+00]
  GenCon coe range [1e+00, 1e+00]
Presolve added 583 rows and 0 columns
Presolve removed 0 rows and 196 columns
Presolve time: 0.07s
Presolved: 2172 rows, 1242 columns, 11346 nonzeros
Variable types: 80 continuous, 1162 integer (1158 binary)
Found heuristic solution: objective 51.0000000
Found heuristic solution: objective 50.0000000
Found heuristic solution: objective 24.0000000
Found heuristic solution: objective 23.0000000

Root relaxation: objective 1.250691e+00, 961 iterations, 0.02 seconds (0.03 work units)

    Nodes    |    Current Node    |     Objective Bounds      |     Work
 Expl Unexpl |  Obj  Depth IntInf | Incumbent    BestBd   Gap | It/Node Time

     0     0    1.25069    0  128   23.00000    1.25069  94.6%     -    0s
H    0     0                      16.0000000    1.25069  92.2%     -    0s
H    0     0                      13.0000000    1.25069  90.4%     -    0s
H    0     0                      12.0000000    1.25069  89.6%     -    0s
H    0     0                      11.0000000    1.25069  88.6%     -    0s
H    0     0                      10.0000000    1.25069  87.5%     -    0s
     0     0    1.74338    0  173   10.00000    1.74338  82.6%     -    0s
H    0     0                       7.0000000    1.78583  74.5%     -    0s
H    0     0                       6.0000000    1.78583  70.2%     -    0s
     0     0    1.79037    0  201    6.00000    1.79037  70.2%     -    0s
     0     0    1.79037    0  200    6.00000    1.79037  70.2%     -    0s
     0     0    2.04387    0  225    6.00000    2.04387  65.9%     -    0s
     0     0    2.04471    0  237    6.00000    2.04471  65.9%     -    0s
     0     0    2.04471    0  212    6.00000    2.04471  65.9%     -    0s
     0     0    2.34460    0  249    6.00000    2.34460  60.9%     -    0s
H    0     0                       5.0000000    2.37971  52.4%     -    0s
     0     0    2.40817    0  243    5.00000    2.40817  51.8%     -    0s
     0     0    2.42150    0  200    5.00000    2.42150  51.6%     -    0s
     0     0    2.42150    0  199    5.00000    2.42150  51.6%     -    0s
     0     0    2.59574    0  155    5.00000    2.59574  48.1%     -    0s
     0     0    2.61111    0  161    5.00000    2.61111  47.8%     -    0s
     0     0    2.61111    0  139    5.00000    2.61111  47.8%     -    0s
     0     0    2.61111    0  159    5.00000    2.61111  47.8%     -    0s
     0     0    2.62083    0  204    5.00000    2.62083  47.6%     -    0s
     0     0    2.62083    0  165    5.00000    2.62083  47.6%     -    0s
     0     0    2.62083    0  194    5.00000    2.62083  47.6%     -    0s
     0     0    2.62083    0  199    5.00000    2.62083  47.6%     -    0s
     0     0    2.62083    0  181    5.00000    2.62083  47.6%     -    0s
     0     0    2.62083    0  154    5.00000    2.62083  47.6%     -    0s
     0     0    2.62083    0  204    5.00000    2.62083  47.6%     -    0s
     0     0    2.62083    0  202    5.00000    2.62083  47.6%     -    0s
     0     0    2.62083    0  179    5.00000    2.62083  47.6%     -    0s
     0     2    2.62093    0  166    5.00000    2.62093  47.6%     -    1s
   919   377    3.68687   11  269    5.00000    3.15000  37.0%  60.5    5s
  1349   347    4.00000   35   38    5.00000    3.33333  33.3%  88.2   10s
  2167    49     cutoff   35         5.00000    4.00000  20.0%  94.7   15s

Cutting planes:
  Learned: 2
  Gomory: 1
  Cover: 54
  Implied bound: 10
  Clique: 1
  MIR: 35
  StrongCG: 1
  Flow cover: 17
  GUB cover: 39
  Zero half: 12
  RLT: 15
  Relax-and-lift: 1

Explored 2839 nodes (277545 simplex iterations) in 17.96 seconds (18.74 work units)
Thread count was 1 (of 16 available processors)

Solution count 10: 5 6 7 ... 24

Optimal solution found (tolerance 1.00e-04)
Best objective 5.000000000000e+00, best bound 5.000000000000e+00, gap 0.0000%

User-callback calls 12206, time in user-callback 0.01 sec

 sepatime0 0 0
5.0Stat(MathOptInterface.OPTIMAL, 5.0, 5.0, 0.0, 0.0, 1.210662, 17.96182608604431, 2839, Main.CFLG.LEFPAI, "", #undef)
